solution status: optimal solution found
objective value:                     155927.553918356
d11(0,0)                                            1 	(obj:0)
d11(1,1)                                            1 	(obj:0)
d11(1,2)                                            1 	(obj:0)
d11(1,3)                                            1 	(obj:0)
d11(2,4)                                            1 	(obj:0)
d11(2,5)                                            1 	(obj:0)
d11(2,6)                                            1 	(obj:0)
d11(2,7)                                            1 	(obj:0)
d11(2,8)                                            1 	(obj:0)
d11(2,10)                                           1 	(obj:0)
d11(2,11)                                           1 	(obj:0)
d11(2,12)                                           1 	(obj:0)
d11(3,13)                                           1 	(obj:0)
d11(3,14)                                           1 	(obj:0)
d11(3,15)                                           1 	(obj:0)
d11(3,16)                                           1 	(obj:0)
d11(3,17)                                           1 	(obj:0)
d11(3,19)                                           1 	(obj:0)
d11(3,20)                                           1 	(obj:0)
d11(3,21)                                           1 	(obj:0)
d11(3,22)                                           1 	(obj:0)
d11(3,23)                                           1 	(obj:0)
d11(3,24)                                           1 	(obj:0)
d11(3,25)                                           1 	(obj:0)
d11(3,26)                                           1 	(obj:0)
d11(3,28)                                           1 	(obj:0)
d11(3,29)                                           1 	(obj:0)
d11(3,30)                                           1 	(obj:0)
d11(3,31)                                           1 	(obj:0)
d11(3,32)                                           1 	(obj:0)
d11(3,33)                                           1 	(obj:0)
d11(3,34)                                           1 	(obj:0)
d11(3,35)                                           1 	(obj:0)
d11(3,36)                                           1 	(obj:0)
d11(3,37)                                           1 	(obj:0)
d11(3,38)                                           1 	(obj:0)
d11(3,39)                                           1 	(obj:0)
d21(3,13)                                           1 	(obj:0)
STE(1,1)                             8534.67031000007 	(obj:0)
STE(0,0)                                        14175 	(obj:0)
STE(1,2)                             9531.43631333336 	(obj:0)
STE(1,3)                             10748.8885166667 	(obj:0)
STE(2,4)                              5186.4521033334 	(obj:0)
STE(2,5)                             6183.21810666669 	(obj:0)
STE(2,6)                             7400.67031000007 	(obj:0)
STE(2,7)                             6183.21810666669 	(obj:0)
STE(2,8)                             7179.98410999998 	(obj:0)
STE(2,9)                             8397.43631333336 	(obj:0)
STE(2,10)                            7400.67031000007 	(obj:0)
STE(2,11)                            8397.43631333336 	(obj:0)
STE(2,12)                            9614.88851666673 	(obj:0)
STE(3,13)                            1838.23389666671 	(obj:0)
STE(3,14)                                   2834.9999 	(obj:0)
STE(3,15)                             4052.4521033334 	(obj:0)
STE(3,16)                                   2834.9999 	(obj:0)
STE(3,17)                            3831.76590333329 	(obj:0)
STE(3,18)                            5049.21810666669 	(obj:0)
STE(3,19)                            4052.45210333338 	(obj:0)
STE(3,20)                            5049.21810666667 	(obj:0)
STE(3,21)                            6266.67031000007 	(obj:0)
STE(3,22)                                   2834.9999 	(obj:0)
STE(3,23)                            3831.76590333324 	(obj:0)
STE(3,24)                            5049.21810666669 	(obj:0)
STE(3,25)                            3831.76590333329 	(obj:0)
STE(3,26)                            4828.53190666658 	(obj:0)
STE(3,27)                            6045.98410999998 	(obj:0)
STE(3,28)                            5049.21810666667 	(obj:0)
STE(3,29)                            6045.98410999996 	(obj:0)
STE(3,30)                            7263.43631333336 	(obj:0)
STE(3,31)                            4052.45210333338 	(obj:0)
STE(3,32)                            5049.21810666667 	(obj:0)
STE(3,33)                            6266.67031000007 	(obj:0)
STE(3,34)                            5049.21810666667 	(obj:0)
STE(3,35)                            6045.98410999996 	(obj:0)
STE(3,36)                            7263.43631333334 	(obj:0)
STE(3,37)                            6266.67031000005 	(obj:0)
STE(3,38)                            7263.43631333334 	(obj:0)
STE(3,39)                            8480.88851666673 	(obj:0)
y1(3,23)                              1095.7069830001 	(obj:0)
y1(3,25)                             1992.79638600002 	(obj:0)
y1(3,26)                             1095.70698300006 	(obj:0)
y1(3,28)                             1992.79638600002 	(obj:0)
y1(3,29)                             1095.70698300006 	(obj:0)
y1(3,31)                             1992.79638600002 	(obj:0)
y1(3,32)                             1095.70698300006 	(obj:0)
y1(3,34)                             1992.79638600002 	(obj:0)
y1(3,35)                             1095.70698300006 	(obj:0)
y1(3,37)                             1992.79638600002 	(obj:0)
y1(3,38)                             1095.70698300006 	(obj:0)
BG(3)                                1204.56299667524 	(obj:10)
AVE(1)                               3199.95851117552 	(obj:0)
WB(2)                                3265.15049132519 	(obj:0)
AVE(2)                               3265.15049132519 	(obj:0)
AVE(3)                               3291.35535332476 	(obj:0)
WG(1)                                3199.95851117552 	(obj:10)
WG(3)                                3291.35535332476 	(obj:10)
BG(1)                                3400.96018066116 	(obj:10)
BG(2)                                      4495.91835 	(obj:10)
y1(1,1)                              4055.69672099994 	(obj:0)
y1(1,2)                              3158.60731799998 	(obj:0)
y1(1,3)                              2062.90033499994 	(obj:0)
y1(2,4)                                   1992.796386 	(obj:0)
y1(2,5)                              1095.70698300004 	(obj:0)
y1(2,7)                                   1992.796386 	(obj:0)
y1(2,8)                              1095.70698300004 	(obj:0)
y1(2,10)                                  1992.796386 	(obj:0)
y1(2,11)                             1095.70698300004 	(obj:0)
y1(3,13)                             1992.79638600002 	(obj:0)
y1(3,14)                             1095.70698300006 	(obj:0)
y1(3,16)                             1992.79638600002 	(obj:0)
y1(3,17)                             1095.70698300006 	(obj:0)
y1(3,19)                             1992.79638600002 	(obj:0)
y1(3,20)                             1095.70698300006 	(obj:0)
y1(3,22)                             1992.79638600002 	(obj:0)
